
******************************************************************************
This program contains Ipopt, a library for large-scale nonlinear optimization.
 Ipopt is released as open source code under the Eclipse Public License (EPL).
         For more information visit http://projects.coin-or.org/Ipopt
******************************************************************************

This is Ipopt version 3.12.6, running with linear solver ma57.

Number of nonzeros in equality constraint Jacobian...:        0
Number of nonzeros in inequality constraint Jacobian.:      303
Number of nonzeros in Lagrangian Hessian.............:        4

Total number of variables............................:        3
                     variables with only lower bounds:        0
                variables with lower and upper bounds:        0
                     variables with only upper bounds:        0
Total number of equality constraints.................:        0
Total number of inequality constraints...............:      101
        inequality constraints with only lower bounds:        0
   inequality constraints with lower and upper bounds:        0
        inequality constraints with only upper bounds:      101

iter    objective    inf_pr   inf_du lg(mu)  ||d||  lg(rg) alpha_du alpha_pr  ls
   0  3.0000000e+00 1.26e+01 1.13e+00  -1.0 0.00e+00    -  0.00e+00 0.00e+00   0
   1  2.7384962e+00 1.24e+01 1.82e+00  -1.0 1.35e+01    -  2.16e-02 1.23e-02h  1
   2  2.7076977e+00 1.24e+01 2.91e+01  -1.0 1.72e+01    -  1.44e-02 2.32e-03f  1
   3  2.5623162e+00 1.21e+01 1.91e+01  -1.0 9.91e+00    -  1.38e-02 2.41e-02f  1
   4  2.5600930e+00 1.21e+01 2.09e+01  -1.0 9.07e+00    -  7.23e-03 2.40e-03f  1
   5  2.5561598e+00 1.21e+01 2.07e+01  -1.0 7.16e+00    -  1.16e-03 1.52e-03f  1
   6  9.5940482e+00 1.08e+01 3.61e+03  -1.0 1.27e+01    -  1.23e-04 2.97e-02F  1
   7  1.2835258e+01 1.08e+01 2.71e+03  -1.0 1.92e+01    -  4.33e-02 2.50e-01f  3
   8  6.4009280e+00 1.15e+01 1.74e+03  -1.0 1.29e+01    -  7.50e-02 3.49e-01f  1
   9  1.0653717e+01 1.03e+01 9.62e+02  -1.0 1.78e+01    -  3.62e-04 5.00e-01f  2
iter    objective    inf_pr   inf_du lg(mu)  ||d||  lg(rg) alpha_du alpha_pr  ls
  10  8.5652981e+00 1.00e+01 2.84e+03  -1.0 1.38e+01   2.0 7.78e-01 1.78e-02h  1
  11  4.9832948e+00 8.45e+00 1.44e+03  -1.0 1.39e+01   1.5 1.00e+00 2.50e-01f  3
  12  1.8089292e+00 8.55e+00 8.44e+02  -1.0 1.28e+01   1.9 1.00e+00 1.25e-01f  4
  13  4.9384353e-01 8.33e+00 1.39e+04  -1.0 1.26e+02   1.5 2.36e-01 9.79e-03f  3
  14  5.0235511e-01 8.37e+00 5.28e+02  -1.0 6.89e+01   2.8 5.76e-02 6.64e-03h  8
  15  1.6063106e+02 8.00e-01 4.94e+03  -1.0 3.05e+01   2.3 7.74e-03 2.50e-01h  3
  16  6.3442107e+01 4.70e+00 3.89e+03  -1.0 2.56e+01    -  5.72e-02 2.12e-01f  1
  17  6.3421540e+01 4.69e+00 3.89e+03  -1.0 4.10e+00   1.8 1.00e+00 2.48e-03h  1
  18  5.6625553e+01 5.06e+00 3.50e+03  -1.0 9.36e+00    -  2.09e-01 9.83e-02f  1
  19  5.6636142e+01 5.06e+00 3.50e+03  -1.0 3.77e+00    -  3.81e-02 7.45e-04h  1
iter    objective    inf_pr   inf_du lg(mu)  ||d||  lg(rg) alpha_du alpha_pr  ls
  20  5.7463863e+01 4.99e+00 3.45e+03  -1.0 5.17e+00    -  1.32e-03 1.46e-02h  1
  21  5.7915547e+01 4.96e+00 3.44e+03  -1.0 5.56e+00    -  1.17e-02 6.36e-03h  1
  22  8.7989505e+01 3.24e+00 2.24e+03  -1.0 5.65e+00    -  1.67e-04 3.47e-01h  1
  23  1.7551373e+02 0.00e+00 5.75e+01  -1.0 3.69e+00    -  3.88e-01 1.00e+00h  1
  24  1.9278500e+02 0.00e+00 4.68e+01  -1.0 3.76e+00    -  6.99e-01 1.00e+00H  1
  25  1.4988742e+02 3.43e-01 1.76e+01  -1.0 1.47e+00    -  2.48e-02 1.00e+00f  1
  26  9.0239038e+01 0.00e+00 9.10e+00  -1.0 7.30e+00    -  8.74e-02 1.00e+00f  1
  27  8.8986996e+01 0.00e+00 1.14e+02  -1.0 4.09e-01   1.4 1.00e+00 2.08e-01h  1
  28  8.0768581e+01 0.00e+00 8.26e+00  -1.0 1.91e+00    -  1.00e+00 1.00e+00f  1
  29  7.0984740e+01 0.00e+00 1.47e+01  -1.0 9.03e-01   0.9 1.00e+00 1.00e+00f  1
iter    objective    inf_pr   inf_du lg(mu)  ||d||  lg(rg) alpha_du alpha_pr  ls
  30  6.7107479e+01 5.78e-03 1.48e+01  -1.0 3.17e-01   1.3 7.60e-01 1.00e+00f  1
  31  4.9437331e+01 0.00e+00 4.99e+01  -1.0 1.44e+00    -  1.00e+00 1.00e+00f  1
  32  4.8390611e+01 0.00e+00 1.31e+01  -1.0 4.30e-01   0.8 1.00e+00 1.00e+00h  1
  33  5.5153751e+01 2.61e-01 3.02e+01  -1.0 1.00e+01    -  4.15e-01 1.52e-02H  1
  34  4.1732974e+01 0.00e+00 2.92e+01  -1.0 1.86e+00   0.4 1.00e+00 1.00e+00f  1
  35  3.8388731e+01 0.00e+00 3.42e+00  -1.0 9.34e-01  -0.1 2.45e-01 1.00e+00f  1
  36  8.0063105e+00 6.64e-01 1.15e+01  -1.0 5.17e+00    -  9.65e-01 1.00e+00f  1
  37  7.2343212e+00 0.00e+00 9.35e+00  -1.0 1.37e+00    -  3.45e-01 1.00e+00h  1
  38  8.4125592e+00 0.00e+00 7.84e-01  -1.0 2.13e+00    -  7.17e-01 1.00e+00h  1
  39  6.2992826e+00 0.00e+00 6.18e-03  -1.7 1.98e+00    -  1.00e+00 1.00e+00f  1
iter    objective    inf_pr   inf_du lg(mu)  ||d||  lg(rg) alpha_du alpha_pr  ls
  40  5.5248622e+00 0.00e+00 2.98e-02  -2.5 3.68e+00    -  1.00e+00 4.62e-01h  1
  41  5.3484032e+00 0.00e+00 4.51e-02  -2.5 3.70e-01    -  1.00e+00 1.00e+00h  1
  42  5.3463495e+00 0.00e+00 2.63e-04  -2.5 4.26e-02    -  1.00e+00 1.00e+00h  1
  43  5.3355471e+00 9.82e-04 4.99e-02  -3.8 8.76e-02    -  1.00e+00 6.50e-01h  1
  44  5.3347281e+00 0.00e+00 4.89e-04  -3.8 3.61e-02    -  1.00e+00 1.00e+00h  1
  45  5.3346810e+00 1.49e-05 2.25e-04  -5.7 5.70e-03    -  1.00e+00 9.82e-01h  1
  46  5.3346891e+00 0.00e+00 6.19e-09  -5.7 1.28e-04    -  1.00e+00 1.00e+00h  1
  47  5.3346873e+00 0.00e+00 1.63e-09  -8.6 6.84e-05    -  1.00e+00 1.00e+00h  1

Number of Iterations....: 47

                                   (scaled)                 (unscaled)
Objective...............:   5.3346872772879621e+00    5.3346872772879621e+00
Dual infeasibility......:   1.6277046377410898e-09    1.6277046377410898e-09
Constraint violation....:   0.0000000000000000e+00    0.0000000000000000e+00
Complementarity.........:   2.8220783410120392e-09    2.8220783410120392e-09
Overall NLP error.......:   2.8220783410120392e-09    2.8220783410120392e-09


Number of objective function evaluations             = 86
Number of objective gradient evaluations             = 48
Number of equality constraint evaluations            = 0
Number of inequality constraint evaluations          = 86
Number of equality constraint Jacobian evaluations   = 0
Number of inequality constraint Jacobian evaluations = 48
Number of Lagrangian Hessian evaluations             = 47
Total CPU secs in IPOPT (w/o function evaluations)   =      0.020
Total CPU secs in NLP function evaluations           =      0.010

EXIT: Optimal Solution Found.

************************ CUTEst statistics ************************


 Package used            :  IPOPT
 Problem                 :  TFI1      
 # variables             =               3
 # constraints           =             101
 # objective functions   =        0.1350000E+03
 # objective gradients   =        0.4900000E+02
 # objective Hessians    =        0.4800000E+02
 # Hessian-vector prdct  =        0.0000000E+00
 # constraints functions =        0.1360000E+03
 # constraints gradients =        0.5000000E+02
 # constraints Hessians  =        0.4800000E+02
 Exit code               =               0
 Final f                 =   0.5334687E+01
 Set up time             =            0.00 seconds
 Solve time              =            0.09 seconds


******************************************************************

System Time =       0.0219999999 s.
